400
750
598
598
597
597
594
594
591
591
591
590
590
588
587
587
586
584
583
582
581
580
580
580
579
578
576
573
572
571
571
569
568
567
567
566
565
565
565
563
563
563
563
562
561
559
559
558
556
556
555
553
552
551
551
550
548
548
547
546
545
544
541
540
540
539
535
535
535
535
534
533
533
533
531
529
529
528
527
526
525
525
524
521
521
521
521
518
517
516
514
514
513
511
511
510
509
508
508
506
506
502
501
501
501
500
499
497
497
493
491
490
489
485
485
483
481
480
478
476
469
468
468
466
463
461
461
460
460
456
455
455
454
454
453
453
449
449
447
446
446
445
444
444
441
438
434
434
433
431
431
431
431
431
431
429
428
427
425
425
422
422
421
420
418
417
417
416
415
415
414
412
412
412
409
408
406
405
402
402
400
397
395
391
391
388
387
386
386
384
383
382
382
380
380
380
379
378
377
376
376
374
373
372
372
371
370
370
369
367
367
367
367
366
364
363
361
360
360
357
355
355
355
355
353
351
350
350
349
348
348
348
346
345
345
343
343
341
340
339
339
339
338
338
335
334
334
334
331
330
329
327
327
327
326
323
323
321
320
320
320
318
318
317
316
315
314
314
310
310
310
310
308
308
306
305
303
302
301
300
300
298
298
297
297
295
293
292
292
291
289
288
288
286
284
284
283
278
277
275
275
275
273
273
272
271
271
268
267
267
266
265
263
261
261
259
258
258
255
254
254
253
252
250
249
248
248
247
245
244
242
241
239
239
238
237
235
232
232
228
227
225
224
222
222
222
221
220
220
216
215
213
212
209
209
206
206
205
204
199
197
195
193
192
192
192
191
191
189
188
186
185
184
184
182
182
181
179
178
178
177
177
176
175
174
173
173
171
170
169
169
167
166
166
161
160
160
160
159
157
151
151
